183 300 216 202 215 244 208 200 224 214 223 247 215 249 201 202 235 222 230 219 245 233 236 210 216 212 216 225 242 230 223 212 243 239 239 207 233 247 232 206 235 204 227 250 227 202 201 211 225 231 204 219 239 214 203 204 200 219 203 242 223 227 228 240 215 216 221 222 237 202 228 221 232 229 245 208 232 247 245 206 201 223 250 240 238 203 245 238 247 248 230 245 249 232 208 214 249 230 236 235 206 239 231 238 242 225 221 223 246 215 203 222 238 228 236 225 205 204 213 226 202 217 220 225 249 203 239 221 233 225 231 239 238 236 201 229 210 222 202 231 237 230 202 224 207 238 224 212 243 211 213 219 202 233 244 225 236 207 247 243 232 201 232 244 237 207 222 221 229 249 201 215 229 228 213 210 216 211 248 233 222 210 226 224 217 